
Gurobi 13.0.2 (win64) logging started Fri Jul 24 10:20:24 2026

Set parameter LogFile to value "E:\codes\ExactEBRP\results\gf_c0_mechanism_transfer_c5_round30\runs\stage3__V12_M1__c3_replica__300s\external\native_logs\R.1.0.0.0.1.1.1.0.0.1_terminal_mip.gurobi.log"
Gurobi Optimizer version 13.0.2 build v13.0.2rc1 (win64 - Windows 10.0 (19045.2))

CPU model: 12th Gen Intel(R) Core(TM) i7-12700KF, instruction set [SSE2|AVX|AVX2]
Thread count: 12 physical cores, 20 logical processors, using up to 1 threads

Non-default parameters:
TimeLimit  201.6403133
MIPGap  0
MIPGapAbs  0
LogToConsole  0
Threads  1

Optimize a model with 6225 rows, 648 columns and 59365 nonzeros (Min)
Model fingerprint: 0x1a883b01
Model has 13 linear objective coefficients
Variable types: 347 continuous, 301 integer (253 binary)
Coefficient statistics:
  Matrix range     [2e-03, 1e+05]
  Objective range  [2e-03, 1e+00]
  Bounds range     [1e-01, 8e+01]
  RHS range        [3e-02, 1e+06]

Presolve removed 742 rows and 27 columns
Presolve time: 0.13s
Presolved: 5483 rows, 621 columns, 58749 nonzeros
Variable types: 321 continuous, 300 integer (252 binary)

Root relaxation: objective 3.227611e-01, 831 iterations, 0.06 seconds (0.22 work units)

    Nodes    |    Current Node    |     Objective Bounds      |     Work
 Expl Unexpl |  Obj  Depth IntInf | Incumbent    BestBd   Gap | It/Node Time

     0     0    0.32276    0  105          -    0.32276      -     -    0s
     0     0    0.32695    0   96          -    0.32695      -     -    0s
     0     0    0.32710    0   94          -    0.32710      -     -    0s
     0     0    0.33312    0  112          -    0.33312      -     -    0s
     0     0    0.33387    0  116          -    0.33387      -     -    0s
     0     0    0.33552    0  104          -    0.33552      -     -    1s
     0     0    0.33676    0  102          -    0.33676      -     -    1s
     0     0    0.33694    0  122          -    0.33694      -     -    1s
     0     0    0.33704    0  120          -    0.33704      -     -    1s
     0     0    0.33722    0  116          -    0.33722      -     -    1s
     0     0    0.33731    0  116          -    0.33731      -     -    1s
     0     0    0.33731    0  116          -    0.33731      -     -    1s
     0     0    0.33731    0  116          -    0.33731      -     -    2s
     0     0    0.33731    0  113          -    0.33731      -     -    2s
     0     2    0.33803    0  113          -    0.33803      -     -    2s

Cutting planes:
  Learned: 3
  Gomory: 2
  Cover: 9
  Implied bound: 34
  Clique: 24
  MIR: 39
  Knapsack: 1
  StrongCG: 6
  Flow cover: 31
  Zero half: 1
  Network: 2
  RLT: 11
  Relax-and-lift: 13
  BQP: 5
  PSD: 2

Explored 4 nodes (2429 simplex iterations) in 2.85 seconds (3.84 work units)
Thread count was 1 (of 20 available processors)

Solution count 0

Model is infeasible
Best objective -, best bound -, gap -

User-callback calls 1780, time in user-callback 0.00 sec
